results/x-long/X-n162-k11.vrp_seed-37.vrp.sol
Route #1: 145 68 58 130 99 35 36 94 66 56 123 43 142 102 116
Route #2: 141 135 147 159 82 2 109 148 134 124 128 110 153 160 85 121
Route #3: 111 154 140 31 100 106 88 96 129 95 114 62 67 20 79 52
Route #4: 54 76 41 61 46 69 65 70 113 63 104 83 98 47 25
Route #5: 74 108 137 39 146 151 131 57 32 16 5 120 158 81 91 136
Route #6: 127 17 149 89 14 1 55 60 21 9 27 117 97 77 161
Route #7: 59 50 45 150 90 86 53 80
Route #8: 15 29 10 105 139 126 138 133 107 122 84 143 144 119 72
Route #9: 28 26 48 11 38 73 49 6 37 71 13 24 23 152
Route #10: 8 42 51 12 64 18 19 3 33 75 44 7 34 22 78
Route #11: 155 92 125 93 132 101 4 87 112 157 40 30 118 103 115 156
Cost 14153.000000